2025-10-24 08:19:15,797 - INFO - 📌 第一个 epoch：默认所有模块使用 checkpoint
2025-10-24 09:35:20,078 - INFO - Epoch 1 completed in 4564.301996 seconds
2025-10-24 09:45:23,497 - INFO - torch.cuda.max_memory_reserved() : 0.560546875
2025-10-24 11:01:44,046 - INFO - 
[🔁 拟合反向传播时间模型]
2025-10-24 11:01:44,046 - INFO - 总反向传播时间: 4568.396595s
2025-10-24 11:01:44,046 - INFO - 拟合模型: backward_total ≈ 2 × (A + B) + b
2025-10-24 11:01:44,046 - INFO - A = 1162.350193, B = 165.398676, b = 3240.647726s
2025-10-24 11:01:44,080 - INFO - Set parameter LicenseID to value 2706656
2025-10-24 11:01:44,090 - INFO - Set parameter LogToConsole to value 1
2025-10-24 11:01:44,090 - INFO - Set parameter LogFile to value ""
2025-10-24 11:01:44,090 - INFO - Set parameter Threads to value 12
2025-10-24 11:01:44,090 - INFO - Set parameter TimeLimit to value 3600
2025-10-24 11:01:44,090 - INFO - Set parameter OptimalityTol to value 0.0001
2025-10-24 11:01:44,090 - INFO - Set parameter IntFeasTol to value 1e-05
2025-10-24 11:01:44,090 - INFO - Set parameter StartNodeLimit to value 10000000
2025-10-24 11:01:44,147 - INFO - Set parameter TimeLimit to value 3600
2025-10-24 11:01:44,147 - INFO - 
2025-10-24 11:01:44,147 - INFO - 
2025-10-24 11:01:44,147 - INFO - Restarting solve
2025-10-24 11:01:44,147 - INFO - 
2025-10-24 11:01:44,147 - INFO - 
2025-10-24 11:01:44,152 - INFO - Gurobi Optimizer version 12.0.3 build v12.0.3rc0 (linux64 - "Ubuntu 20.04.6 LTS")
2025-10-24 11:01:44,152 - INFO - 
2025-10-24 11:01:44,152 - INFO - CPU model: Intel(R) Xeon(R) Platinum 8260 CPU @ 2.40GHz, instruction set [SSE2|AVX|AVX2|AVX512]
2025-10-24 11:01:44,152 - INFO - Thread count: 48 physical cores, 96 logical processors, using up to 12 threads
2025-10-24 11:01:44,152 - INFO - 
2025-10-24 11:01:44,152 - INFO - Non-default parameters:
2025-10-24 11:01:44,152 - INFO - TimeLimit  3600
2025-10-24 11:01:44,152 - INFO - OptimalityTol  0.0001
2025-10-24 11:01:44,152 - INFO - StartNodeLimit  10000000
2025-10-24 11:01:44,152 - INFO - Threads  12
2025-10-24 11:01:44,152 - INFO - 
2025-10-24 11:01:44,153 - INFO - Optimize a model with 5603 rows, 3584 columns and 15200 nonzeros
2025-10-24 11:01:44,153 - INFO - Model fingerprint: 0x34103695
2025-10-24 11:01:44,153 - INFO - Variable types: 1024 continuous, 2560 integer (2560 binary)
2025-10-24 11:01:44,153 - INFO - Coefficient statistics:
2025-10-24 11:01:44,153 - INFO -   Matrix range     [1e+00, 2e+14]
2025-10-24 11:01:44,153 - INFO -   Objective range  [9e+04, 2e+05]
2025-10-24 11:01:44,153 - INFO -   Bounds range     [1e+00, 5e+15]
2025-10-24 11:01:44,153 - INFO -   RHS range        [1e+00, 5e+15]
2025-10-24 11:01:44,153 - INFO - Warning: Model contains large matrix coefficient range
2025-10-24 11:01:44,153 - INFO - Warning: Model contains large rhs
2025-10-24 11:01:44,153 - INFO - Warning: Model contains large bounds
2025-10-24 11:01:44,153 - INFO -          Consider reformulating model or setting NumericFocus parameter
2025-10-24 11:01:44,153 - INFO -          to avoid numerical issues.
2025-10-24 11:01:44,176 - INFO - Presolve removed 4443 rows and 2130 columns
2025-10-24 11:01:44,176 - INFO - Presolve time: 0.02s
2025-10-24 11:01:44,176 - INFO - Presolved: 1160 rows, 1454 columns, 4180 nonzeros
2025-10-24 11:01:44,178 - INFO - Variable types: 0 continuous, 1454 integer (1085 binary)
2025-10-24 11:01:44,181 - INFO - Found heuristic solution: objective 2.336051e+07
2025-10-24 11:01:44,183 - INFO - Found heuristic solution: objective 7938622.0000
2025-10-24 11:01:44,184 - INFO - Found heuristic solution: objective 6996996.0000
2025-10-24 11:01:44,186 - INFO - Found heuristic solution: objective 6952420.0000
2025-10-24 11:01:44,189 - INFO - 
2025-10-24 11:01:44,189 - INFO - Root relaxation: objective 4.664664e+06, 448 iterations, 0.00 seconds (0.00 work units)
2025-10-24 11:01:44,198 - INFO - 
2025-10-24 11:01:44,198 - INFO -     Nodes    |    Current Node    |     Objective Bounds      |     Work
2025-10-24 11:01:44,198 - INFO -  Expl Unexpl |  Obj  Depth IntInf | Incumbent    BestBd   Gap | It/Node Time
2025-10-24 11:01:44,198 - INFO - 
2025-10-24 11:01:44,198 - INFO -      0     0 4664664.00    0   12 6952420.00 4664664.00  32.9%     -    0s
2025-10-24 11:01:44,200 - INFO - H    0     0                    6761385.0000 4664664.00  31.0%     -    0s
2025-10-24 11:01:44,202 - INFO - H    0     0                    4664664.0000 4664664.00  0.00%     -    0s
2025-10-24 11:01:44,202 - INFO -      0     0 4664664.00    0   12 4664664.00 4664664.00  0.00%     -    0s
2025-10-24 11:01:44,204 - INFO - 
2025-10-24 11:01:44,204 - INFO - Explored 1 nodes (634 simplex iterations) in 0.05 seconds (0.03 work units)
2025-10-24 11:01:44,205 - INFO - Thread count was 12 (of 96 available processors)
2025-10-24 11:01:44,205 - INFO - 
2025-10-24 11:01:44,205 - INFO - Solution count 6: 4.66466e+06 6.76138e+06 6.95242e+06 ... 2.33605e+07
2025-10-24 11:01:44,205 - INFO - 
2025-10-24 11:01:44,205 - INFO - Optimal solution found (tolerance 1.00e-04)
2025-10-24 11:01:44,205 - INFO - Best objective 4.664664000000e+06, best bound 4.664664000000e+06, gap 0.0000%
2025-10-24 11:01:44,215 - INFO - 规划前的显存GB：4.0
2025-10-24 11:01:44,215 - INFO - 规划后的显存GB：1.4015579223632812
2025-10-24 11:01:44,215 - INFO - ✅ 最优策略：[1, 1, 1, 1, 1, 1, 1, 1, 1, 1, 1, 1, 1, 1, 1, 1]
2025-10-24 11:01:44,216 - INFO - 📌 checkpoint 的欧氏长度:, []
2025-10-24 11:01:44,216 - INFO - 📌 checkpoint 的余弦长度:, []
2025-10-24 11:01:44,216 - INFO - 💾 最终显存峰值：%.2f MB % 1269.9289474487305
2025-10-24 11:01:44,217 - INFO - Epoch 2 completed in 4580.715754 seconds
2025-10-24 11:01:44,217 - INFO - torch.cuda.max_memory_reserved() : 0.560546875
2025-10-24 12:10:00,034 - INFO - Epoch 3 completed in 4095.814490 seconds
2025-10-24 12:10:00,035 - INFO - 
====================== [第1个 Epoch 收集统计数据] ======================
2025-10-24 12:10:00,035 - INFO - 
🔍 EUCLIDEAN modules:
2025-10-24 12:10:00,035 - INFO - [Shapelet 128] forward_avg=0.001943s over 10912 calls | peak=14.80MB | final=0.00MB
2025-10-24 12:10:00,035 - INFO - [Shapelet 694] forward_avg=0.001820s over 10912 calls | peak=72.14MB | final=0.00MB
2025-10-24 12:10:00,035 - INFO - [Shapelet 1261] forward_avg=0.001909s over 10912 calls | peak=114.19MB | final=0.00MB
2025-10-24 12:10:00,035 - INFO - [Shapelet 1828] forward_avg=0.001910s over 10912 calls | peak=138.23MB | final=0.00MB
2025-10-24 12:10:00,035 - INFO - [Shapelet 2395] forward_avg=0.002041s over 10912 calls | peak=150.28MB | final=0.00MB
2025-10-24 12:10:00,035 - INFO - [Shapelet 2962] forward_avg=0.002022s over 10912 calls | peak=146.73MB | final=0.00MB
2025-10-24 12:10:00,035 - INFO - [Shapelet 3529] forward_avg=0.002055s over 10912 calls | peak=128.99MB | final=0.00MB
2025-10-24 12:10:00,035 - INFO - [Shapelet 4096] forward_avg=0.002044s over 10912 calls | peak=96.53MB | final=0.00MB
2025-10-24 12:10:00,035 - INFO - 
🔍 COSINE modules:
2025-10-24 12:10:00,035 - INFO - [Shapelet 128] forward_avg=0.002589s over 10912 calls | peak=9.79MB | final=0.00MB
2025-10-24 12:10:00,035 - INFO - [Shapelet 694] forward_avg=0.002407s over 10912 calls | peak=48.03MB | final=0.00MB
2025-10-24 12:10:00,035 - INFO - [Shapelet 1261] forward_avg=0.002374s over 10912 calls | peak=76.03MB | final=0.00MB
2025-10-24 12:10:00,035 - INFO - [Shapelet 1828] forward_avg=0.002478s over 10912 calls | peak=92.03MB | final=0.00MB
2025-10-24 12:10:00,035 - INFO - [Shapelet 2395] forward_avg=0.002440s over 10912 calls | peak=100.02MB | final=0.00MB
2025-10-24 12:10:00,035 - INFO - [Shapelet 2962] forward_avg=0.002318s over 10912 calls | peak=97.60MB | final=0.00MB
2025-10-24 12:10:00,035 - INFO - [Shapelet 3529] forward_avg=0.002778s over 10912 calls | peak=85.74MB | final=0.00MB
2025-10-24 12:10:00,035 - INFO - [Shapelet 4096] forward_avg=0.002378s over 10912 calls | peak=64.07MB | final=0.00MB
2025-10-24 12:10:00,035 - INFO - 
🔍 CROSS modules:
2025-10-24 12:10:00,035 - INFO - [Shapelet 128] forward_avg=0.000857s over 10912 calls
2025-10-24 12:10:00,035 - INFO - [Shapelet 694] forward_avg=0.000899s over 10912 calls
2025-10-24 12:10:00,035 - INFO - [Shapelet 1261] forward_avg=0.000911s over 10912 calls
2025-10-24 12:10:00,035 - INFO - [Shapelet 1828] forward_avg=0.000885s over 10912 calls
2025-10-24 12:10:00,035 - INFO - [Shapelet 2395] forward_avg=0.000911s over 10912 calls
2025-10-24 12:10:00,035 - INFO - [Shapelet 2962] forward_avg=0.000987s over 10912 calls
2025-10-24 12:10:00,035 - INFO - [Shapelet 3529] forward_avg=0.001088s over 10912 calls
2025-10-24 12:10:00,035 - INFO - [Shapelet 4096] forward_avg=0.001040s over 10912 calls
2025-10-24 12:10:00,036 - INFO - 
💾 模型第一次反向传播阶段的显存峰值（所有模块中的最大值）: 1211.74 MB
2025-10-24 12:10:00,036 - INFO - 
💾 模型初始显存: 3.17 MB
2025-10-24 12:10:00,036 - INFO - =======================================================================

2025-10-24 12:10:00,036 - INFO - torch.cuda.max_memory_reserved() : 1.310546875
2025-10-24 13:17:56,625 - INFO - Epoch 4 completed in 4076.584548 seconds
2025-10-24 13:17:56,625 - INFO - torch.cuda.max_memory_reserved() : 1.310546875
2025-10-24 14:26:55,810 - INFO - Epoch 5 completed in 4139.180943 seconds
2025-10-24 14:26:55,810 - INFO - torch.cuda.max_memory_reserved() : 1.310546875
2025-10-24 15:34:58,609 - INFO - Epoch 6 completed in 4082.794517 seconds
2025-10-24 15:34:58,609 - INFO - torch.cuda.max_memory_reserved() : 1.310546875
2025-10-24 16:43:11,222 - INFO - Epoch 7 completed in 4092.607372 seconds
2025-10-24 16:43:11,223 - INFO - torch.cuda.max_memory_reserved() : 1.310546875
2025-10-24 17:50:11,094 - INFO - Epoch 8 completed in 4019.867103 seconds
2025-10-24 17:50:11,094 - INFO - torch.cuda.max_memory_reserved() : 1.310546875
2025-10-24 18:56:40,678 - INFO - Epoch 9 completed in 3989.579740 seconds
2025-10-24 18:56:40,678 - INFO - torch.cuda.max_memory_reserved() : 1.310546875
2025-10-24 19:44:17,735 - INFO - Epoch 10 completed in 2857.053102 seconds
2025-10-24 19:50:54,232 - INFO - torch.cuda.max_memory_reserved() : 1.310546875
2025-10-24 19:50:54,237 - INFO - !!!采用策略后的几个epoch 平均时间:3919.1852268874645
2025-10-24 19:50:54,237 - INFO - 



